19 69 91 28 30 92 80 41 72 54 50 26 47 34 18 6 1 58 44 56 9 55 3 94 14 62 63 16 97 78 59 36 15 93 73 46 24 99 75 52 39 89 65 31 2 71 35 4 68 29 88 49 10 67 21 83 82 87 96 25 45 95 77 23 27 17 76 86 42 13 81 84 12 40 5 38 64 74 79 61 22 70 37 48 53 0 90 43 8 33 66 11 32 20 51 85 98 57 60 7 

